30
251
5
25
60
32
10
92
0 1
0 2
0 3
0 4
0 7
0 9
0 10
0 15
0 16
0 17
0 18
0 19
0 21
0 23
0 25
0 27
0 28
0 29
1 3
1 7
1 10
1 13
1 15
1 16
1 17
1 18
1 20
1 24
1 25
1 27
1 28
1 29
2 3
2 5
2 7
2 9
2 12
2 13
2 14
2 15
2 16
2 17
2 18
2 19
2 21
2 22
2 24
2 25
2 27
2 28
2 29
3 4
3 5
3 8
3 9
3 10
3 11
3 12
3 13
3 14
3 15
3 16
3 20
3 22
3 25
3 26
3 27
3 29
4 6
4 8
4 10
4 12
4 13
4 20
4 22
4 24
4 25
4 28
4 29
5 6
5 8
5 9
5 12
5 15
5 17
5 18
5 19
5 20
5 21
5 25
5 26
5 29
6 8
6 9
6 10
6 11
6 12
6 13
6 14
6 15
6 20
6 25
6 26
6 29
7 10
7 11
7 12
7 13
7 14
7 15
7 17
7 18
7 19
7 21
7 23
7 28
8 10
8 11
8 13
8 14
8 15
8 17
8 19
8 20
8 22
8 23
8 26
8 28
8 29
9 11
9 12
9 13
9 16
9 17
9 22
9 23
9 25
9 26
9 27
9 28
10 11
10 12
10 13
10 15
10 16
10 17
10 18
10 20
10 23
10 24
10 25
10 26
10 27
10 28
11 14
11 15
11 16
11 17
11 19
11 21
11 23
11 24
11 27
11 28
11 29
12 14
12 15
12 16
12 17
12 18
12 21
12 22
12 24
12 25
12 26
12 27
12 28
12 29
13 14
13 15
13 16
13 18
13 19
13 21
13 23
13 27
13 28
14 15
14 16
14 17
14 19
14 20
14 22
14 23
14 24
14 26
14 27
14 28
15 20
15 23
15 24
15 27
15 29
16 20
16 21
16 24
16 25
16 29
17 19
17 20
17 21
17 24
17 27
17 28
17 29
18 19
18 21
18 22
18 23
18 24
18 27
18 28
18 29
19 20
19 22
19 23
19 25
19 26
19 27
20 21
20 23
20 24
20 25
20 26
21 22
21 23
21 27
22 24
22 25
22 27
22 28
23 25
23 26
23 29
24 25
24 26
24 29
25 28
25 29
26 28
27 28
11 0 28 29 27 5 15
17 22 10 21 1 7 3
25 19 16 23 24 14 9
13 2 18 8 12 26 20
6 4
